NAME
ROWS
 N  OBJ
 G  c1
 G  c2
 G  c3
 G  c4
 G  c5
 G  c6
 G  c7
 G  c8
 G  c9
 G  c10
 G  c11
 G  c12
 G  c13
 G  c14
 G  c15
 G  c16
 G  c17
 G  c18
 G  c19
 G  c20
 G  c21
 G  c22
 G  c23
 G  c24
 G  c25
 G  c26
 G  c27
 G  c28
 G  c29
 G  c30
 G  c31
 G  c32
 G  c33
 G  c34
 G  c35
 G  c36
 G  c37
 G  c38
 G  c39
 G  c40
 G  c41
 G  c42
 G  c43
 G  c44
 G  c45
 G  c46
 G  c47
 G  c48
 G  c49
 G  c50
 G  c51
 G  c52
 G  c53
 G  c54
 G  c55
 G  c56
 G  c57
 G  c58
 G  c59
 G  c60
COLUMNS
    MARKER    'MARKER'                 'INTORG'
    x[1]      c1        1
    x[1]      c37       1
    x[1]      c47       1
    x[1]      c48       1
    x[1]      c50       1
    x[1]      c55       1
    x[1]      c57       1
    x[1]      OBJ       1
    x[2]      c2        1
    x[2]      c3        1
    x[2]      c4        1
    x[2]      c38       1
    x[2]      c39       1
    x[2]      c59       1
    x[2]      OBJ       1
    x[3]      c2        1
    x[3]      c3        1
    x[3]      c15       1
    x[3]      c16       1
    x[3]      c25       1
    x[3]      OBJ       1
    x[4]      c2        1
    x[4]      c4        1
    x[4]      c7        1
    x[4]      c10       1
    x[4]      c17       1
    x[4]      c19       1
    x[4]      c25       1
    x[4]      c31       1
    x[4]      c37       1
    x[4]      c56       1
    x[4]      OBJ       1
    x[5]      c5        1
    x[5]      c17       1
    x[5]      c27       1
    x[5]      c35       1
    x[5]      c38       1
    x[5]      c42       1
    x[5]      c46       1
    x[5]      OBJ       1
    x[6]      c6        1
    x[6]      c7        1
    x[6]      c17       1
    x[6]      c38       1
    x[6]      c41       1
    x[6]      c45       1
    x[6]      c59       1
    x[6]      OBJ       1
    x[7]      c4        1
    x[7]      c6        1
    x[7]      c7        1
    x[7]      c12       1
    x[7]      c27       1
    x[7]      c28       1
    x[7]      c32       1
    x[7]      c45       1
    x[7]      c48       1
    x[7]      c57       1
    x[7]      OBJ       1
    x[8]      c8        1
    x[8]      c30       1
    x[8]      c36       1
    x[8]      c42       1
    x[8]      c47       1
    x[8]      c49       1
    x[8]      OBJ       1
    x[9]      c9        1
    x[9]      c17       1
    x[9]      c40       1
    x[9]      OBJ       1
    x[10]     c4        1
    x[10]     c10       1
    x[10]     c46       1
    x[10]     c48       1
    x[10]     c50       1
    x[10]     c51       1
    x[10]     c55       1
    x[10]     OBJ       1
    x[11]     c11       1
    x[11]     c14       1
    x[11]     c33       1
    x[11]     c37       1
    x[11]     c52       1
    x[11]     c57       1
    x[11]     c60       1
    x[11]     OBJ       1
    x[12]     c7        1
    x[12]     c12       1
    x[12]     c36       1
    x[12]     c40       1
    x[12]     c42       1
    x[12]     OBJ       1
    x[13]     c13       1
    x[13]     c19       1
    x[13]     c23       1
    x[13]     c28       1
    x[13]     c49       1
    x[13]     c53       1
    x[13]     c58       1
    x[13]     OBJ       1
    x[14]     c11       1
    x[14]     c14       1
    x[14]     c16       1
    x[14]     c21       1
    x[14]     c25       1
    x[14]     c29       1
    x[14]     c33       1
    x[14]     c43       1
    x[14]     c60       1
    x[14]     OBJ       1
    x[15]     c3        1
    x[15]     c15       1
    x[15]     c19       1
    x[15]     c21       1
    x[15]     c48       1
    x[15]     c59       1
    x[15]     OBJ       1
    x[16]     c3        1
    x[16]     c14       1
    x[16]     c16       1
    x[16]     c30       1
    x[16]     c58       1
    x[16]     OBJ       1
    x[17]     c4        1
    x[17]     c5        1
    x[17]     c6        1
    x[17]     c9        1
    x[17]     c17       1
    x[17]     c33       1
    x[17]     c43       1
    x[17]     c44       1
    x[17]     c55       1
    x[17]     OBJ       1
    x[18]     c18       1
    x[18]     c24       1
    x[18]     c27       1
    x[18]     c43       1
    x[18]     c49       1
    x[18]     c56       1
    x[18]     OBJ       1
    x[19]     c4        1
    x[19]     c13       1
    x[19]     c15       1
    x[19]     c19       1
    x[19]     c34       1
    x[19]     c35       1
    x[19]     c52       1
    x[19]     OBJ       1
    x[20]     c20       1
    x[20]     c21       1
    x[20]     c24       1
    x[20]     c54       1
    x[20]     c59       1
    x[20]     OBJ       1
    x[21]     c14       1
    x[21]     c15       1
    x[21]     c20       1
    x[21]     c21       1
    x[21]     c57       1
    x[21]     OBJ       1
    x[22]     c22       1
    x[22]     c30       1
    x[22]     c34       1
    x[22]     c43       1
    x[22]     c50       1
    x[22]     c52       1
    x[22]     OBJ       1
    x[23]     c13       1
    x[23]     c23       1
    x[23]     c32       1
    x[23]     c60       1
    x[23]     OBJ       1
    x[24]     c18       1
    x[24]     c20       1
    x[24]     c24       1
    x[24]     c28       1
    x[24]     c31       1
    x[24]     c39       1
    x[24]     c40       1
    x[24]     c56       1
    x[24]     OBJ       1
    x[25]     c3        1
    x[25]     c4        1
    x[25]     c14       1
    x[25]     c25       1
    x[25]     c55       1
    x[25]     c56       1
    x[25]     OBJ       1
    x[26]     c26       1
    x[26]     c40       1
    x[26]     c41       1
    x[26]     c52       1
    x[26]     OBJ       1
    x[27]     c5        1
    x[27]     c7        1
    x[27]     c18       1
    x[27]     c27       1
    x[27]     c37       1
    x[27]     c42       1
    x[27]     c50       1
    x[27]     c54       1
    x[27]     OBJ       1
    x[28]     c7        1
    x[28]     c13       1
    x[28]     c24       1
    x[28]     c28       1
    x[28]     c35       1
    x[28]     c42       1
    x[28]     c45       1
    x[28]     OBJ       1
    x[29]     c14       1
    x[29]     c29       1
    x[29]     c30       1
    x[29]     c31       1
    x[29]     c33       1
    x[29]     c43       1
    x[29]     c58       1
    x[29]     OBJ       1
    x[30]     c8        1
    x[30]     c16       1
    x[30]     c22       1
    x[30]     c29       1
    x[30]     c30       1
    x[30]     c58       1
    x[30]     c59       1
    x[30]     OBJ       1
    x[31]     c4        1
    x[31]     c24       1
    x[31]     c29       1
    x[31]     c31       1
    x[31]     c35       1
    x[31]     c59       1
    x[31]     c60       1
    x[31]     OBJ       1
    x[32]     c7        1
    x[32]     c23       1
    x[32]     c32       1
    x[32]     c33       1
    x[32]     c37       1
    x[32]     c42       1
    x[32]     c46       1
    x[32]     c59       1
    x[32]     OBJ       1
    x[33]     c11       1
    x[33]     c14       1
    x[33]     c17       1
    x[33]     c29       1
    x[33]     c32       1
    x[33]     c33       1
    x[33]     c40       1
    x[33]     c50       1
    x[33]     c57       1
    x[33]     OBJ       1
    x[34]     c19       1
    x[34]     c22       1
    x[34]     c34       1
    x[34]     c55       1
    x[34]     c56       1
    x[34]     c59       1
    x[34]     OBJ       1
    x[35]     c5        1
    x[35]     c19       1
    x[35]     c28       1
    x[35]     c31       1
    x[35]     c35       1
    x[35]     c38       1
    x[35]     c40       1
    x[35]     c41       1
    x[35]     OBJ       1
    x[36]     c8        1
    x[36]     c12       1
    x[36]     c36       1
    x[36]     c37       1
    x[36]     c48       1
    x[36]     c49       1
    x[36]     c51       1
    x[36]     c56       1
    x[36]     OBJ       1
    x[37]     c1        1
    x[37]     c4        1
    x[37]     c11       1
    x[37]     c27       1
    x[37]     c32       1
    x[37]     c36       1
    x[37]     c37       1
    x[37]     c38       1
    x[37]     c41       1
    x[37]     c44       1
    x[37]     OBJ       1
    x[38]     c2        1
    x[38]     c5        1
    x[38]     c6        1
    x[38]     c35       1
    x[38]     c37       1
    x[38]     c38       1
    x[38]     OBJ       1
    x[39]     c2        1
    x[39]     c24       1
    x[39]     c39       1
    x[39]     c47       1
    x[39]     c50       1
    x[39]     OBJ       1
    x[40]     c9        1
    x[40]     c12       1
    x[40]     c24       1
    x[40]     c26       1
    x[40]     c33       1
    x[40]     c35       1
    x[40]     c40       1
    x[40]     c46       1
    x[40]     c52       1
    x[40]     OBJ       1
    x[41]     c6        1
    x[41]     c26       1
    x[41]     c35       1
    x[41]     c37       1
    x[41]     c41       1
    x[41]     c50       1
    x[41]     OBJ       1
    x[42]     c5        1
    x[42]     c8        1
    x[42]     c12       1
    x[42]     c27       1
    x[42]     c28       1
    x[42]     c32       1
    x[42]     c42       1
    x[42]     OBJ       1
    x[43]     c14       1
    x[43]     c17       1
    x[43]     c18       1
    x[43]     c22       1
    x[43]     c29       1
    x[43]     c43       1
    x[43]     c53       1
    x[43]     c55       1
    x[43]     c58       1
    x[43]     c59       1
    x[43]     OBJ       1
    x[44]     c17       1
    x[44]     c37       1
    x[44]     c44       1
    x[44]     c47       1
    x[44]     c56       1
    x[44]     OBJ       1
    x[45]     c6        1
    x[45]     c7        1
    x[45]     c28       1
    x[45]     c45       1
    x[45]     c57       1
    x[45]     OBJ       1
    x[46]     c5        1
    x[46]     c10       1
    x[46]     c32       1
    x[46]     c40       1
    x[46]     c46       1
    x[46]     c48       1
    x[46]     c59       1
    x[46]     OBJ       1
    x[47]     c1        1
    x[47]     c8        1
    x[47]     c39       1
    x[47]     c44       1
    x[47]     c47       1
    x[47]     c53       1
    x[47]     c55       1
    x[47]     c56       1
    x[47]     OBJ       1
    x[48]     c1        1
    x[48]     c7        1
    x[48]     c10       1
    x[48]     c15       1
    x[48]     c36       1
    x[48]     c46       1
    x[48]     c48       1
    x[48]     OBJ       1
    x[49]     c8        1
    x[49]     c13       1
    x[49]     c18       1
    x[49]     c36       1
    x[49]     c49       1
    x[49]     c52       1
    x[49]     c59       1
    x[49]     OBJ       1
    x[50]     c1        1
    x[50]     c10       1
    x[50]     c22       1
    x[50]     c27       1
    x[50]     c33       1
    x[50]     c39       1
    x[50]     c41       1
    x[50]     c50       1
    x[50]     OBJ       1
    x[51]     c10       1
    x[51]     c36       1
    x[51]     c51       1
    x[51]     c52       1
    x[51]     c60       1
    x[51]     OBJ       1
    x[52]     c11       1
    x[52]     c19       1
    x[52]     c22       1
    x[52]     c26       1
    x[52]     c40       1
    x[52]     c49       1
    x[52]     c51       1
    x[52]     c52       1
    x[52]     c55       1
    x[52]     OBJ       1
    x[53]     c13       1
    x[53]     c43       1
    x[53]     c47       1
    x[53]     c53       1
    x[53]     c58       1
    x[53]     OBJ       1
    x[54]     c20       1
    x[54]     c27       1
    x[54]     c54       1
    x[54]     OBJ       1
    x[55]     c1        1
    x[55]     c10       1
    x[55]     c17       1
    x[55]     c25       1
    x[55]     c34       1
    x[55]     c43       1
    x[55]     c47       1
    x[55]     c52       1
    x[55]     c55       1
    x[55]     OBJ       1
    x[56]     c4        1
    x[56]     c18       1
    x[56]     c24       1
    x[56]     c25       1
    x[56]     c34       1
    x[56]     c36       1
    x[56]     c44       1
    x[56]     c47       1
    x[56]     c56       1
    x[56]     OBJ       1
    x[57]     c1        1
    x[57]     c7        1
    x[57]     c11       1
    x[57]     c21       1
    x[57]     c33       1
    x[57]     c45       1
    x[57]     c57       1
    x[57]     OBJ       1
    x[58]     c13       1
    x[58]     c16       1
    x[58]     c29       1
    x[58]     c30       1
    x[58]     c43       1
    x[58]     c53       1
    x[58]     c58       1
    x[58]     OBJ       1
    x[59]     c2        1
    x[59]     c6        1
    x[59]     c15       1
    x[59]     c20       1
    x[59]     c30       1
    x[59]     c31       1
    x[59]     c32       1
    x[59]     c34       1
    x[59]     c43       1
    x[59]     c46       1
    x[59]     c49       1
    x[59]     c59       1
    x[59]     OBJ       1
    x[60]     c11       1
    x[60]     c14       1
    x[60]     c23       1
    x[60]     c31       1
    x[60]     c51       1
    x[60]     c60       1
    x[60]     OBJ       1
    MARKER    'MARKER'                 'INTEND'
RHS
    rhs       c1        1
    rhs       c2        1
    rhs       c3        1
    rhs       c4        1
    rhs       c5        1
    rhs       c6        1
    rhs       c7        1
    rhs       c8        1
    rhs       c9        1
    rhs       c10       1
    rhs       c11       1
    rhs       c12       1
    rhs       c13       1
    rhs       c14       1
    rhs       c15       1
    rhs       c16       1
    rhs       c17       1
    rhs       c18       1
    rhs       c19       1
    rhs       c20       1
    rhs       c21       1
    rhs       c22       1
    rhs       c23       1
    rhs       c24       1
    rhs       c25       1
    rhs       c26       1
    rhs       c27       1
    rhs       c28       1
    rhs       c29       1
    rhs       c30       1
    rhs       c31       1
    rhs       c32       1
    rhs       c33       1
    rhs       c34       1
    rhs       c35       1
    rhs       c36       1
    rhs       c37       1
    rhs       c38       1
    rhs       c39       1
    rhs       c40       1
    rhs       c41       1
    rhs       c42       1
    rhs       c43       1
    rhs       c44       1
    rhs       c45       1
    rhs       c46       1
    rhs       c47       1
    rhs       c48       1
    rhs       c49       1
    rhs       c50       1
    rhs       c51       1
    rhs       c52       1
    rhs       c53       1
    rhs       c54       1
    rhs       c55       1
    rhs       c56       1
    rhs       c57       1
    rhs       c58       1
    rhs       c59       1
    rhs       c60       1
RANGES
BOUNDS
 BV bounds    x[1]
 BV bounds    x[2]
 BV bounds    x[3]
 BV bounds    x[4]
 BV bounds    x[5]
 BV bounds    x[6]
 BV bounds    x[7]
 BV bounds    x[8]
 BV bounds    x[9]
 BV bounds    x[10]
 BV bounds    x[11]
 BV bounds    x[12]
 BV bounds    x[13]
 BV bounds    x[14]
 BV bounds    x[15]
 BV bounds    x[16]
 BV bounds    x[17]
 BV bounds    x[18]
 BV bounds    x[19]
 BV bounds    x[20]
 BV bounds    x[21]
 BV bounds    x[22]
 BV bounds    x[23]
 BV bounds    x[24]
 BV bounds    x[25]
 BV bounds    x[26]
 BV bounds    x[27]
 BV bounds    x[28]
 BV bounds    x[29]
 BV bounds    x[30]
 BV bounds    x[31]
 BV bounds    x[32]
 BV bounds    x[33]
 BV bounds    x[34]
 BV bounds    x[35]
 BV bounds    x[36]
 BV bounds    x[37]
 BV bounds    x[38]
 BV bounds    x[39]
 BV bounds    x[40]
 BV bounds    x[41]
 BV bounds    x[42]
 BV bounds    x[43]
 BV bounds    x[44]
 BV bounds    x[45]
 BV bounds    x[46]
 BV bounds    x[47]
 BV bounds    x[48]
 BV bounds    x[49]
 BV bounds    x[50]
 BV bounds    x[51]
 BV bounds    x[52]
 BV bounds    x[53]
 BV bounds    x[54]
 BV bounds    x[55]
 BV bounds    x[56]
 BV bounds    x[57]
 BV bounds    x[58]
 BV bounds    x[59]
 BV bounds    x[60]
ENDATA
